(set-option :print-success false)
(set-logic QF_UF)
(declare-sort x120 0)
(declare-sort x39 0)
(declare-fun x17 () x39)
(declare-fun x98 (x39 x39) x39)
(declare-fun x41 (x39 x39) x39)
(declare-fun x140 () x39)
(declare-fun x83 () x39)
(declare-fun x46 () x39)
(declare-fun x36 () x39)
(assert (let ((x59 (= (x41 x46 x46) x46)) (x7 (= (x41 x17 x17) x17)) (x8 (= x140 (x41 x140 x140))) (x115 (= (x41 x36 x36) x36)) (x26 (= x83 (x41 x83 x83)))) (let ((x81 (not x26)) (x40 (not x8)) (x35 (not x7)) (x29 (not x115)) (x38 (not x59))) (or (or (or (and (= x17 (x41 x17 x46)) x38) (or (or (and (= (x41 x17 x36) x17) x29) (or (and (= (x41 x17 x140) x17) x40) (and (= (x41 x17 x83) x17) x81))) (and x35 x7))) (or (or (or (or (and x35 (= x83 (x41 x83 x17))) (or (and x29 (= (x41 x83 x36) x83)) (or (and x26 x81) (and x40 (= x83 (x41 x83 x140)))))) (and x38 (= (x41 x83 x46) x83))) (or (or (or (and (= x140 (x41 x140 x36)) x29) (or (and x40 x8) (and x81 (= x140 (x41 x140 x83))))) (and (= (x41 x140 x17) x140) x35)) (and x38 (= x140 (x41 x140 x46))))) (or (or (and x35 (= (x41 x36 x17) x36)) (or (and x115 x29) (or (and x40 (= (x41 x36 x140) x36)) (and x81 (= x36 (x41 x36 x83)))))) (and (= x36 (x41 x36 x46)) x38)))) (or (or (and (= (x41 x46 x17) x46) x35) (or (and x29 (= (x41 x46 x36) x46)) (or (and x81 (= (x41 x46 x83) x46)) (and (= x46 (x41 x46 x140)) x40)))) (and x59 x38))))))
(assert (and (not (= x17 x46)) (and (and (and (and (not (= x17 x140)) (and (not (= x140 x36)) (and (not (= x83 x46)) (and (and (not (= x36 x83)) (not (= x140 x83))) (not (= x83 x17)))))) (not (= x140 x46))) (not (= x17 x36))) (not (= x36 x46)))))
(assert (let ((x40 (x41 x17 x17)) (x29 (x41 x46 x46)) (x8 (x41 x36 x36)) (x81 (x41 x140 x140)) (x26 (x41 x83 x83))) (or (and (not (= x46 x29)) (and (not (= x40 x46)) (and (and (not (= x26 x46)) (not (= x46 x81))) (not (= x46 x8))))) (or (or (and (not (= x36 x29)) (and (and (and (not (= x36 x26)) (not (= x81 x36))) (not (= x36 x8))) (not (= x36 x40)))) (or (and (not (= x29 x140)) (and (and (not (= x8 x140)) (and (not (= x81 x140)) (not (= x140 x26)))) (not (= x40 x140)))) (and (and (and (not (= x83 x8)) (and (not (= x83 x26)) (not (= x81 x83)))) (not (= x40 x83))) (not (= x83 x29))))) (and (not (= x17 x29)) (and (not (= x40 x17)) (and (not (= x17 x8)) (and (not (= x26 x17)) (not (= x17 x81))))))))))
(assert (let ((x109 (x41 x36 x140)) (x19 (x41 x17 x36)) (x115 (x41 x140 x36)) (x129 (x41 x17 x140)) (x82 (x41 x17 x46)) (x29 (x41 x83 x46)) (x59 (x41 x140 x46)) (x108 (x41 x36 x36)) (x62 (x41 x46 x83)) (x141 (x41 x36 x83)) (x40 (x41 x83 x17)) (x6 (x41 x36 x17)) (x130 (x41 x17 x17)) (x9 (x41 x46 x140)) (x72 (x41 x17 x83)) (x13 (x41 x46 x17)) (x63 (x41 x36 x46)) (x26 (x41 x83 x83)) (x35 (x41 x140 x83)) (x7 (x41 x140 x17)) (x123 (x41 x46 x36)) (x8 (x41 x83 x36)) (x38 (x41 x140 x140)) (x81 (x41 x83 x140)) (x45 (x41 x46 x46))) (and (and (and (and (and (and (and (and (or (or (or (= x26 x36) (or (= x26 x140) (= x26 x83))) (= x17 x26)) (= x26 x46)) (or (= x81 x46) (or (= x17 x81) (or (= x81 x36) (or (= x81 x83) (= x140 x81)))))) (or (or (or (= x8 x36) (or (= x8 x140) (= x83 x8))) (= x17 x8)) (= x46 x8))) (or (or (or (= x36 x40) (or (= x40 x83) (= x40 x140))) (= x40 x17)) (= x40 x46))) (or (= x29 x46) (or (or (= x36 x29) (or (= x140 x29) (= x83 x29))) (= x29 x17)))) (and (or (= x59 x46) (or (= x17 x59) (or (or (= x59 x140) (= x59 x83)) (= x36 x59)))) (and (and (or (or (= x17 x115) (or (= x36 x115) (or (= x115 x140) (= x83 x115)))) (= x46 x115)) (and (or (= x46 x38) (or (= x17 x38) (or (= x36 x38) (or (= x38 x83) (= x38 x140))))) (or (= x35 x46) (or (= x35 x17) (or (= x35 x36) (or (= x35 x83) (= x140 x35))))))) (or (or (= x17 x7) (or (= x36 x7) (or (= x140 x7) (= x83 x7)))) (= x7 x46))))) (and (or (or (or (= x36 x63) (or (= x83 x63) (= x63 x140))) (= x63 x17)) (= x46 x63)) (and (or (= x6 x46) (or (= x17 x6) (or (= x6 x36) (or (= x140 x6) (= x83 x6))))) (and (or (or (= x17 x108) (or (or (= x108 x140) (= x83 x108)) (= x108 x36))) (= x108 x46)) (and (or (or (or (or (= x109 x140) (= x109 x83)) (= x36 x109)) (= x109 x17)) (= x46 x109)) (or (= x46 x141) (or (or (= x141 x36) (or (= x140 x141) (= x141 x83))) (= x17 x141)))))))) (and (and (and (and (or (or (= x17 x129) (or (= x36 x129) (or (= x129 x83) (= x140 x129)))) (= x129 x46)) (or (or (= x17 x72) (or (= x72 x36) (or (= x72 x83) (= x72 x140)))) (= x46 x72))) (or (= x19 x46) (or (= x19 x17) (or (or (= x19 x140) (= x83 x19)) (= x36 x19))))) (or (= x130 x46) (or (or (or (= x130 x140) (= x130 x83)) (= x36 x130)) (= x130 x17)))) (or (= x82 x46) (or (or (= x36 x82) (or (= x82 x83) (= x140 x82))) (= x17 x82))))) (and (and (and (or (or (or (= x36 x123) (or (= x140 x123) (= x83 x123))) (= x17 x123)) (= x46 x123)) (and (or (or (= x17 x62) (or (= x62 x36) (or (= x62 x83) (= x62 x140)))) (= x46 x62)) (or (or (= x17 x9) (or (or (= x9 x83) (= x140 x9)) (= x36 x9))) (= x46 x9)))) (or (= x13 x46) (or (= x17 x13) (or (= x13 x36) (or (= x140 x13) (= x83 x13)))))) (or (= x45 x46) (or (or (or (= x140 x45) (= x45 x83)) (= x45 x36)) (= x17 x45)))))))
(assert (let ((x19 (x41 x36 x17)) (x109 (x41 x140 x36)) (x9 (x41 x140 x46)) (x130 (x41 x17 x17)) (x26 (x41 x83 x83)) (x38 (x41 x140 x140)) (x82 (x41 x46 x17)) (x13 (x41 x17 x46)) (x40 (x41 x17 x83)) (x59 (x41 x46 x140)) (x8 (x41 x36 x83)) (x62 (x41 x83 x46)) (x115 (x41 x36 x140)) (x6 (x41 x17 x36)) (x123 (x41 x36 x46)) (x35 (x41 x83 x140)) (x29 (x41 x46 x83)) (x81 (x41 x140 x83)) (x108 (x41 x36 x36)) (x141 (x41 x83 x36)) (x7 (x41 x17 x140)) (x63 (x41 x46 x36)) (x72 (x41 x83 x17)) (x45 (x41 x46 x46)) (x129 (x41 x140 x17))) (and (and (and (not (= x82 x45)) (and (and (not (= x82 x63)) (and (not (= x45 x59)) (and (and (not (= x59 x63)) (and (not (= x29 x45)) (and (not (= x29 x82)) (and (not (= x29 x63)) (not (= x59 x29)))))) (not (= x82 x59))))) (not (= x45 x63)))) (and (and (and (and (not (= x62 x72)) (and (not (= x62 x141)) (and (and (not (= x35 x62)) (and (and (and (not (= x62 x26)) (and (not (= x72 x26)) (and (not (= x141 x26)) (not (= x26 x35))))) (not (= x141 x35))) (not (= x35 x72)))) (not (= x141 x72))))) (and (not (= x9 x129)) (and (and (and (and (and (not (= x38 x109)) (and (not (= x81 x9)) (and (and (not (= x109 x81)) (not (= x81 x38))) (not (= x129 x81))))) (not (= x129 x38))) (not (= x9 x38))) (not (= x109 x129))) (not (= x109 x9))))) (and (and (not (= x123 x108)) (and (and (and (and (and (and (not (= x19 x8)) (and (not (= x8 x108)) (not (= x8 x115)))) (not (= x8 x123))) (not (= x108 x115))) (not (= x19 x115))) (not (= x123 x115))) (not (= x19 x108)))) (not (= x123 x19)))) (and (and (not (= x6 x13)) (and (not (= x6 x130)) (and (not (= x7 x13)) (and (and (not (= x7 x6)) (and (not (= x13 x40)) (and (and (not (= x40 x7)) (not (= x6 x40))) (not (= x130 x40))))) (not (= x7 x130)))))) (not (= x130 x13))))) (and (and (and (and (and (not (= x29 x40)) (and (not (= x8 x29)) (and (not (= x8 x40)) (and (and (and (not (= x8 x81)) (and (not (= x26 x29)) (and (not (= x40 x26)) (and (not (= x26 x8)) (not (= x26 x81)))))) (not (= x81 x40))) (not (= x81 x29)))))) (and (not (= x59 x7)) (and (and (not (= x115 x7)) (and (not (= x59 x38)) (and (and (not (= x115 x38)) (and (not (= x59 x35)) (and (and (not (= x38 x35)) (not (= x115 x35))) (not (= x35 x7))))) (not (= x38 x7))))) (not (= x115 x59))))) (and (not (= x6 x63)) (and (not (= x63 x108)) (and (not (= x108 x6)) (and (and (not (= x6 x109)) (and (not (= x108 x109)) (and (not (= x63 x141)) (and (not (= x141 x6)) (and (not (= x108 x141)) (not (= x109 x141))))))) (not (= x63 x109))))))) (and (and (not (= x19 x82)) (and (and (and (and (not (= x129 x19)) (and (and (and (not (= x72 x129)) (not (= x72 x19))) (not (= x130 x72))) (not (= x72 x82)))) (not (= x129 x130))) (not (= x129 x82))) (not (= x130 x19)))) (not (= x130 x82)))) (and (and (and (not (= x123 x13)) (and (not (= x45 x9)) (and (and (and (not (= x62 x45)) (and (and (not (= x9 x62)) (not (= x123 x62))) (not (= x13 x62)))) (not (= x123 x9))) (not (= x13 x9))))) (not (= x45 x123))) (not (= x13 x45)))))))
(assert (or (or (and (and (not (= x17 (x41 (x41 x17 x17) x17))) (and (not (= (x41 (x41 x17 x36) x17) x36)) (and (not (= x140 (x41 (x41 x17 x140) x17))) (not (= x83 (x41 (x41 x17 x83) x17)))))) (not (= (x41 (x41 x17 x46) x17) x46))) (or (and (not (= x46 (x41 (x41 x36 x46) x36))) (and (not (= (x41 (x41 x36 x17) x36) x17)) (and (not (= (x41 (x41 x36 x36) x36) x36)) (and (not (= x140 (x41 (x41 x36 x140) x36))) (not (= (x41 (x41 x36 x83) x36) x83)))))) (or (and (and (and (not (= (x41 (x41 x140 x36) x140) x36)) (and (not (= x83 (x41 (x41 x140 x83) x140))) (not (= (x41 (x41 x140 x140) x140) x140)))) (not (= (x41 (x41 x140 x17) x140) x17))) (not (= (x41 (x41 x140 x46) x140) x46))) (and (not (= x46 (x41 (x41 x83 x46) x83))) (and (and (and (not (= (x41 (x41 x83 x140) x83) x140)) (not (= (x41 (x41 x83 x83) x83) x83))) (not (= x36 (x41 (x41 x83 x36) x83)))) (not (= x17 (x41 (x41 x83 x17) x83)))))))) (and (and (not (= (x41 (x41 x46 x17) x46) x17)) (and (not (= (x41 (x41 x46 x36) x46) x36)) (and (not (= (x41 (x41 x46 x140) x46) x140)) (not (= x83 (x41 (x41 x46 x83) x46)))))) (not (= (x41 (x41 x46 x46) x46) x46)))))
(assert (let ((x7 (x41 x36 x36)) (x109 (x41 x17 x140)) (x72 (x41 x17 x17)) (x8 (x41 x83 x140)) (x108 (x41 x140 x17)) (x63 (x41 x36 x17)) (x35 (x41 x83 x36)) (x129 (x41 x46 x83)) (x13 (x41 x17 x46)) (x81 (x41 x140 x83)) (x59 (x41 x17 x83)) (x40 (x41 x140 x140)) (x45 (x41 x46 x46)) (x26 (x41 x83 x83)) (x141 (x41 x83 x17)) (x130 (x41 x46 x140)) (x82 (x41 x140 x46)) (x62 (x41 x46 x36)) (x19 (x41 x83 x46)) (x6 (x41 x17 x36)) (x29 (x41 x36 x83)) (x123 (x41 x46 x17)) (x9 (x41 x36 x46)) (x38 (x41 x36 x140)) (x115 (x41 x140 x36))) (or (or (or (or (and (and (and (= x115 x38) (and (= x40 x40) (= x8 x81))) (= x108 x109)) (= x130 x82)) (and (and (and (and (= x81 x8) (= x26 x26)) (= x29 x35)) (= x141 x59)) (= x19 x129))) (and (and (= x6 x63) (and (= x7 x7) (and (= x29 x35) (= x115 x38)))) (= x9 x62))) (and (and (and (and (= x141 x59) (= x109 x108)) (= x63 x6)) (= x72 x72)) (= x123 x13))) (and (and (= x13 x123) (and (= x62 x9) (and (= x129 x19) (= x82 x130)))) (= x45 x45)))))
(assert (not (and (and (and (and (= x46 (x41 x46 x140)) (and (= (x41 x46 x83) x17) (and (= x140 (x41 x17 x46)) (and (and (and (and (= (x41 x17 x83) x83) (and (and (and (and (and (and (and (= x36 (x41 x140 x17)) (and (and (and (and (and (= x46 (x41 x83 x17)) (and (and (= (x41 x83 x140) x83) (= x36 (x41 x83 x83))) (= (x41 x83 x36) x140))) (= x17 (x41 x83 x46))) (= x140 (x41 x140 x83))) (= x17 (x41 x140 x140))) (= (x41 x140 x36) x83))) (= x46 (x41 x140 x46))) (= x46 (x41 x36 x83))) (= (x41 x36 x140) x140)) (= (x41 x36 x36) x17)) (= x83 (x41 x36 x17))) (= (x41 x36 x46) x36))) (= x36 (x41 x17 x140))) (= x46 (x41 x17 x36))) (= x17 (x41 x17 x17)))))) (= (x41 x46 x36) x36)) (= x140 (x41 x46 x17))) (= x83 (x41 x46 x46)))))
(assert (and (and (and (or (= (x41 (x41 x46 x36) x36) x46) (or (or (or (= (x41 (x41 x140 x36) x36) x140) (= (x41 (x41 x83 x36) x36) x83)) (= (x41 (x41 x36 x36) x36) x36)) (= (x41 (x41 x17 x36) x36) x17))) (and (or (= (x41 (x41 x46 x140) x140) x46) (or (or (or (= (x41 (x41 x83 x140) x140) x83) (= (x41 (x41 x140 x140) x140) x140)) (= (x41 (x41 x36 x140) x140) x36)) (= (x41 (x41 x17 x140) x140) x17))) (or (or (= x17 (x41 (x41 x17 x83) x83)) (or (= x36 (x41 (x41 x36 x83) x83)) (or (= (x41 (x41 x83 x83) x83) x83) (= x140 (x41 (x41 x140 x83) x83))))) (= x46 (x41 (x41 x46 x83) x83))))) (or (or (= (x41 (x41 x17 x17) x17) x17) (or (or (= x140 (x41 (x41 x140 x17) x17)) (= x83 (x41 (x41 x83 x17) x17))) (= x36 (x41 (x41 x36 x17) x17)))) (= x46 (x41 (x41 x46 x17) x17)))) (or (= x46 (x41 (x41 x46 x46) x46)) (or (= (x41 (x41 x17 x46) x46) x17) (or (or (= (x41 (x41 x83 x46) x46) x83) (= x140 (x41 (x41 x140 x46) x46))) (= x36 (x41 (x41 x36 x46) x46)))))))
(assert (let ((x106 (x41 x17 x46)) (x13 (x41 x140 x46)) (x129 (x41 x83 x46)) (x37 (x41 x17 x17)) (x35 (x41 x36 x83)) (x151 (x41 x46 x17)) (x144 (x41 x36 x36)) (x47 (x41 x36 x17)) (x99 (x41 x46 x140)) (x81 (x41 x83 x83)) (x115 (x41 x17 x83)) (x42 (x41 x36 x46)) (x59 (x41 x46 x83)) (x82 (x41 x140 x140)) (x78 (x41 x17 x140)) (x40 (x41 x140 x83)) (x139 (x41 x46 x36)) (x108 (x41 x83 x140)) (x27 (x41 x17 x36)) (x63 (x41 x83 x36)) (x67 (x41 x36 x140)) (x18 (x41 x46 x46)) (x123 (x41 x140 x17)) (x72 (x41 x83 x17)) (x9 (x41 x140 x36))) (let ((x101 (= x115 x17)) (x156 (= x17 x144)) (x100 (= x46 x59)) (x155 (= x140 x67)) (x147 (= x59 x17)) (x55 (= x140 x78)) (x74 (= x36 x72)) (x117 (= x17 x129)) (x112 (= x83 x37)) (x132 (= x36 x106)) (x31 (= x46 x37)) (x135 (= x13 x83)) (x11 (= x40 x17)) (x15 (= x78 x46)) (x126 (= x140 x139)) (x61 (= x36 x40)) (x131 (= x108 x17)) (x148 (= x36 x67)) (x43 (= x46 x35)) (x130 (= x83 x82)) (x4 (= x63 x36)) (x94 (= x123 x17)) (x57 (= x35 x36)) (x110 (= x17 x78)) (x149 (= x108 x46)) (x44 (= x83 x123)) (x119 (= x140 x27)) (x5 (= x46 x139)) (x116 (= x40 x46)) (x158 (= x115 x140)) (x124 (= x46 x72)) (x75 (= x129 x140)) (x84 (= x83 x72)) (x77 (= x17 x18)) (x71 (= x35 x17)) (x65 (= x59 x36)) (x87 (= x46 x9)) (x14 (= x46 x27)) (x88 (= x17 x42)) (x138 (= x140 x123)) (x118 (= x36 x108)) (x38 (= x115 x83)) (x154 (= x82 x46)) (x56 (= x144 x83)) (x1 (= x144 x46)) (x89 (= x46 x13)) (x79 (= x129 x83)) (x122 (= x106 x17)) (x52 (= x46 x123)) (x92 (= x140 x42)) (x76 (= x144 x140)) (x21 (= x115 x46)) (x30 (= x47 x83)) (x133 (= x17 x9)) (x85 (= x151 x17)) (x2 (= x46 x67)) (x111 (= x140 x37)) (x102 (= x99 x17)) (x107 (= x46 x18)) (x6 (= x140 x108)) (x50 (= x46 x63)) (x73 (= x37 x17)) (x53 (= x27 x83)) (x29 (= x83 x35)) (x157 (= x83 x18)) (x114 (= x36 x139)) (x16 (= x36 x123)) (x145 (= x42 x83)) (x93 (= x17 x81)) (x58 (= x78 x83)) (x3 (= x59 x140)) (x28 (= x36 x144)) (x128 (= x83 x106)) (x22 (= x140 x47)) (x48 (= x63 x140)) (x121 (= x99 x83)) (x150 (= x151 x140)) (x142 (= x36 x47)) (x64 (= x67 x83)) (x95 (= x9 x140)) (x19 (= x40 x140)) (x127 (= x46 x106)) (x54 (= x83 x139)) (x49 (= x106 x140)) (x66 (= x78 x36)) (x8 (= x83 x40)) (x32 (= x18 x36)) (x26 (= x81 x83)) (x7 (= x83 x59)) (x10 (= x36 x99)) (x25 (= x13 x140)) (x143 (= x46 x129)) (x105 (= x17 x139)) (x134 (= x99 x140)) (x136 (= x140 x18)) (x90 (= x63 x17)) (x12 (= x115 x36)) (x152 (= x82 x17)) (x153 (= x27 x36)) (x45 (= x35 x140)) (x104 (= x82 x36)) (x86 (= x63 x83)) (x70 (= x17 x13)) (x68 (= x9 x83)) (x103 (= x36 x9)) (x80 (= x17 x72)) (x97 (= x151 x83)) (x62 (= x82 x140)) (x125 (= x81 x46)) (x23 (= x42 x36)) (x60 (= x36 x151)) (x113 (= x81 x36)) (x109 (= x108 x83)) (x91 (= x42 x46)) (x159 (= x46 x47)) (x141 (= x140 x81)) (x146 (= x36 x13)) (x69 (= x151 x46)) (x20 (= x46 x99)) (x96 (= x27 x17)) (x51 (= x67 x17)) (x34 (= x72 x140)) (x33 (= x36 x37)) (x24 (= x36 x129)) (x137 (= x17 x47))) (and (and (or (or (and (not x69) x77) (or (or (or (and (not x150) x102) (and x147 (not x97))) (and (not x60) x105)) (and (not x85) x85))) (or (or (and x122 (not x31)) (or (and (not x73) x73) (or (or (and x110 (not x111)) (and x101 (not x112))) (and (not x33) x96)))) (or (or (or (and x117 (not x124)) (or (and x80 (not x80)) (or (or (and x93 (not x84)) (and (not x34) x131)) (and x90 (not x74))))) (or (and x70 (not x52)) (or (or (or (and x152 (not x138)) (and (not x44) x11)) (and x133 (not x16))) (and x94 (not x94))))) (or (and (not x159) x88) (or (or (or (and (not x30) x71) (and x51 (not x22))) (and (not x142) x156)) (and x137 (not x137))))))) (and (and (or (or (or (or (or (and (not x149) x75) (or (or (and x48 (not x118)) (or (and x141 (not x109)) (and x6 (not x6)))) (and (not x131) x34))) (or (or (or (or (and x62 (not x62)) (and (not x130) x19)) (and (not x104) x95)) (and x138 (not x152))) (and (not x154) x25))) (or (or (and (not x51) x22) (or (and x76 (not x148)) (or (and x155 (not x155)) (and x45 (not x64))))) (and x92 (not x2)))) (or (and (not x15) x49) (or (and (not x110) x111) (or (and x119 (not x66)) (or (and x55 (not x55)) (and (not x58) x158)))))) (or (and (not x20) x136) (or (or (or (and (not x121) x3) (and x134 (not x134))) (and (not x10) x126)) (and x150 (not x102))))) (or (or (or (or (or (and (not x3) x121) (and x7 (not x7))) (and x54 (not x65))) (and (not x147) x97)) (and x157 (not x100))) (or (or (and (not x21) x128) (or (and x112 (not x101)) (or (or (and x38 (not x38)) (and x58 (not x158))) (and x53 (not x12))))) (or (or (or (and (not x125) x79) (or (and x84 (not x93)) (or (or (and x109 (not x141)) (and x26 (not x26))) (and x86 (not x113))))) (or (and x135 (not x116)) (or (or (and (not x61) x68) (or (and x8 (not x8)) (and x130 (not x19)))) (and (not x11) x44)))) (or (or (and (not x71) x30) (or (and x56 (not x57)) (or (and (not x45) x64) (and (not x29) x29)))) (and x145 (not x43))))))) (or (or (and (not x5) x32) (or (or (or (and (not x126) x10) (and x65 (not x54))) (and (not x114) x114)) (and x60 (not x105)))) (or (or (or (or (and x153 (not x153)) (or (and x66 (not x119)) (and (not x53) x12))) (and x33 (not x96))) (and x132 (not x14))) (or (or (or (or (or (or (and x118 (not x48)) (and (not x86) x113)) (and (not x4) x4)) (and (not x90) x74)) (and (not x50) x24)) (or (or (or (and x103 (not x103)) (or (and x61 (not x68)) (and (not x95) x104))) (and x16 (not x133))) (and x146 (not x87)))) (or (and (not x1) x23) (or (or (or (and (not x76) x148) (and (not x56) x57)) (and x28 (not x28))) (and (not x156) x142)))))))) (or (or (or (and x127 (not x127)) (or (and x31 (not x122)) (or (or (and (not x49) x15) (and (not x128) x21)) (and (not x132) x14)))) (or (or (or (or (and x52 (not x70)) (or (or (and x116 (not x135)) (and x154 (not x25))) (and x87 (not x146)))) (and (not x89) x89)) (or (and (not x143) x143) (or (or (and (not x24) x50) (or (and x149 (not x75)) (and (not x79) x125))) (and x124 (not x117))))) (or (and (not x91) x91) (or (and x159 (not x88)) (or (or (and x2 (not x92)) (and (not x145) x43)) (and x1 (not x23))))))) (or (or (or (or (and x20 (not x136)) (and x100 (not x157))) (and (not x32) x5)) (and (not x77) x69)) (and x107 (not x107))))))))
(assert (or (and (not (= (x41 x46 x46) x46)) (and (not (= (x41 x46 x17) x17)) (and (not (= (x41 x46 x36) x36)) (and (not (= x140 (x41 x46 x140))) (not (= x83 (x41 x46 x83))))))) (or (and (and (and (not (= x36 (x41 x17 x36))) (and (not (= (x41 x17 x140) x140)) (not (= x83 (x41 x17 x83))))) (not (= x17 (x41 x17 x17)))) (not (= (x41 x17 x46) x46))) (or (and (not (= (x41 x36 x46) x46)) (and (and (not (= (x41 x36 x36) x36)) (and (not (= (x41 x36 x83) x83)) (not (= (x41 x36 x140) x140)))) (not (= x17 (x41 x36 x17))))) (or (and (not (= (x41 x140 x46) x46)) (and (and (not (= (x41 x140 x36) x36)) (and (not (= x83 (x41 x140 x83))) (not (= x140 (x41 x140 x140))))) (not (= (x41 x140 x17) x17)))) (and (and (not (= (x41 x83 x17) x17)) (and (not (= x36 (x41 x83 x36))) (and (not (= x140 (x41 x83 x140))) (not (= (x41 x83 x83) x83))))) (not (= (x41 x83 x46) x46))))))))
(assert (let ((x9 (x41 x140 x46)) (x67 (x41 x46 x140)) (x16 (x41 x46 x17)) (x25 (x41 x46 x46)) (x29 (x41 x83 x17)) (x35 (x41 x83 x46)) (x151 (x41 x36 x36)) (x7 (x41 x36 x83)) (x8 (x41 x83 x140)) (x82 (x41 x140 x36)) (x81 (x41 x83 x83)) (x62 (x41 x140 x17)) (x40 (x41 x83 x36)) (x59 (x41 x17 x83)) (x80 (x41 x17 x17)) (x11 (x41 x17 x46)) (x4 (x41 x17 x36)) (x61 (x41 x46 x36)) (x113 (x41 x36 x46)) (x115 (x41 x140 x83)) (x141 (x41 x46 x83)) (x64 (x41 x17 x140)) (x130 (x41 x140 x140)) (x18 (x41 x36 x17)) (x45 (x41 x36 x140))) (let ((x58 (= x17 x130)) (x105 (= x46 x18)) (x12 (= x17 x151)) (x55 (= x46 x8)) (x72 (= x8 x83)) (x100 (= x141 x46)) (x23 (= x9 x36)) (x121 (= x83 x82)) (x68 (= x7 x36)) (x10 (= x64 x83)) (x132 (= x9 x17)) (x89 (= x140 x25)) (x124 (= x83 x11)) (x159 (= x113 x36)) (x34 (= x59 x140)) (x28 (= x17 x82)) (x96 (= x17 x18)) (x15 (= x17 x61)) (x60 (= x46 x80)) (x88 (= x36 x11)) (x133 (= x140 x80)) (x48 (= x140 x151)) (x150 (= x46 x62)) (x31 (= x17 x113)) (x118 (= x82 x140)) (x138 (= x18 x140)) (x154 (= x140 x16)) (x146 (= x140 x9)) (x22 (= x62 x36)) (x13 (= x130 x140)) (x114 (= x29 x83)) (x24 (= x113 x83)) (x47 (= x36 x130)) (x111 (= x62 x17)) (x101 (= x64 x17)) (x14 (= x35 x17)) (x66 (= x45 x46)) (x126 (= x83 x4)) (x3 (= x40 x83)) (x135 (= x140 x61)) (x84 (= x18 x83)) (x70 (= x11 x140)) (x26 (= x83 x81)) (x116 (= x67 x140)) (x77 (= x11 x46)) (x87 (= x35 x140)) (x117 (= x83 x25)) (x37 (= x83 x7)) (x148 (= x17 x45)) (x157 (= x67 x46)) (x153 (= x82 x46)) (x52 (= x140 x113)) (x95 (= x36 x40)) (x65 (= x151 x46)) (x30 (= x36 x4)) (x142 (= x80 x36)) (x33 (= x17 x80)) (x63 (= x115 x83)) (x110 (= x17 x29)) (x156 (= x18 x36)) (x129 (= x130 x83)) (x79 (= x61 x83)) (x103 (= x82 x36)) (x143 (= x141 x140)) (x106 (= x45 x83)) (x144 (= x8 x36)) (x131 (= x83 x80)) (x71 (= x64 x36)) (x109 (= x81 x36)) (x32 (= x9 x46)) (x119 (= x40 x46)) (x127 (= x17 x25)) (x108 (= x17 x81)) (x51 (= x29 x36)) (x85 (= x83 x141)) (x137 (= x59 x17)) (x145 (= x36 x67)) (x149 (= x16 x83)) (x123 (= x140 x8)) (x93 (= x83 x62)) (x90 (= x64 x140)) (x112 (= x17 x4)) (x155 (= x36 x115)) (x94 (= x36 x59)) (x128 (= x67 x17)) (x97 (= x4 x46)) (x6 (= x46 x81)) (x125 (= x83 x67)) (x73 (= x46 x59)) (x92 (= x16 x36)) (x69 (= x46 x113)) (x21 (= x17 x141)) (x139 (= x140 x45)) (x1 (= x36 x35)) (x134 (= x7 x140)) (x99 (= x151 x83)) (x5 (= x35 x46)) (x86 (= x40 x140)) (x56 (= x7 x17)) (x38 (= x140 x81)) (x50 (= x9 x83)) (x76 (= x40 x17)) (x78 (= x46 x115)) (x75 (= x83 x35)) (x57 (= x151 x36)) (x147 (= x46 x64)) (x74 (= x140 x4)) (x44 (= x29 x140)) (x49 (= x16 x17)) (x107 (= x46 x25)) (x136 (= x46 x16)) (x91 (= x25 x36)) (x42 (= x17 x115)) (x43 (= x36 x141)) (x2 (= x36 x61)) (x122 (= x17 x11)) (x19 (= x140 x115)) (x104 (= x45 x36)) (x27 (= x130 x46)) (x20 (= x46 x61)) (x53 (= x7 x46)) (x54 (= x83 x59)) (x102 (= x29 x46)) (x152 (= x62 x140)) (x158 (= x8 x17))) (and (and (and (and (and (and (and (or (or (or x56 (or x42 x108)) x137) x21) (or (or (or x76 (or x158 x108)) x110) x14)) (and (and (or (or x51 (or (or x144 x109) x95)) x1) (or (or x94 (or (or x109 x155) x68)) x43)) (and (and (or x87 (or x44 (or (or x38 x123) x86))) (or (or (or (or x38 x19) x134) x34) x143)) (and (or (or x54 (or x37 (or x63 x26))) x85) (or (or x114 (or (or x72 x26) x3)) x75))))) (and (or (or (or x119 (or x6 x55)) x102) x5) (or (or x73 (or (or x78 x6) x53)) x100))) (and (and (or (or x150 (or x153 (or x27 x78))) x32) (or (or (or (or x55 x27) x66) x147) x157)) (and (and (and (or (or x71 (or (or x47 x144) x104)) x145) (or (or (or (or x47 x155) x103) x22) x23)) (and (and (or (or (or x106 (or x72 x129)) x10) x125) (or (or (or x121 (or x63 x129)) x93) x50)) (and (or x146 (or x152 (or x118 (or x13 x19)))) (or x116 (or (or x139 (or x13 x123)) x90))))) (and (or x132 (or x111 (or (or x42 x58) x28))) (or x128 (or (or (or x58 x158) x148) x101)))))) (and (and (or (or (or x65 (or x153 x119)) x97) x20) (or (or x105 (or (or x66 x53) x65)) x69)) (and (and (and (and (or (or x74 (or (or x86 x118) x48)) x135) (or (or (or x48 (or x134 x139)) x138) x52)) (and (or x79 (or (or (or x3 x121) x99) x126)) (or (or (or (or x106 x37) x99) x84) x24))) (and (or x159 (or (or (or x104 x68) x57) x156)) (or (or x30 (or (or x95 x103) x57)) x2))) (and (or (or (or (or x76 x28) x12) x112) x15) (or (or (or x12 (or x56 x148)) x96) x31))))) (and (and (or (or (or x97 (or x147 x73)) x60) x77) (or x136 (or x60 (or (or x102 x150) x105)))) (and (and (and (or x88 (or x142 (or x30 (or x71 x94)))) (or (or (or x156 (or x51 x22)) x142) x92)) (and (and (or x70 (or x133 (or (or x34 x90) x74))) (or (or x133 (or x138 (or x152 x44))) x154)) (and (or x124 (or x131 (or x126 (or x54 x10)))) (or x149 (or (or x84 (or x114 x93)) x131))))) (and (or (or (or x112 (or x101 x137)) x33) x122) (or x49 (or x33 (or x96 (or x110 x111)))))))) (and (and (or x107 (or (or (or x32 x5) x69) x77)) (or x107 (or x136 (or (or x100 x157) x20)))) (and (and (or (or (or (or x21 x128) x15) x49) x127) (or x127 (or x122 (or (or x14 x132) x31)))) (and (and (or x91 (or (or (or x23 x1) x159) x88)) (or (or (or (or x145 x43) x2) x92) x91)) (and (and (or x117 (or (or (or x75 x50) x24) x124)) (or x117 (or (or x79 (or x125 x85)) x149))) (and (or (or (or (or x146 x87) x52) x70) x89) (or (or x154 (or x135 (or x143 x116))) x89))))))))))
(assert (and (and (or (or (or (or (= x140 (x41 x17 (x41 x17 x140))) (= (x41 x17 (x41 x17 x83)) x83)) (= (x41 x17 (x41 x17 x36)) x36)) (= (x41 x17 (x41 x17 x17)) x17)) (= (x41 x17 (x41 x17 x46)) x46)) (and (and (or (or (or (= (x41 x83 (x41 x83 x36)) x36) (or (= (x41 x83 (x41 x83 x83)) x83) (= (x41 x83 (x41 x83 x140)) x140))) (= x17 (x41 x83 (x41 x83 x17)))) (= x46 (x41 x83 (x41 x83 x46)))) (or (or (or (or (= x140 (x41 x140 (x41 x140 x140))) (= x83 (x41 x140 (x41 x140 x83)))) (= x36 (x41 x140 (x41 x140 x36)))) (= (x41 x140 (x41 x140 x17)) x17)) (= (x41 x140 (x41 x140 x46)) x46))) (or (= (x41 x36 (x41 x36 x46)) x46) (or (= x17 (x41 x36 (x41 x36 x17))) (or (= (x41 x36 (x41 x36 x36)) x36) (or (= x140 (x41 x36 (x41 x36 x140))) (= x83 (x41 x36 (x41 x36 x83))))))))) (or (or (= x17 (x41 x46 (x41 x46 x17))) (or (or (= (x41 x46 (x41 x46 x140)) x140) (= (x41 x46 (x41 x46 x83)) x83)) (= (x41 x46 (x41 x46 x36)) x36))) (= (x41 x46 (x41 x46 x46)) x46))))
(assert (or (or (or (= (x41 x36 x36) x36) (or (= x140 (x41 x140 x140)) (= x83 (x41 x83 x83)))) (= x17 (x41 x17 x17))) (= (x41 x46 x46) x46)))
(assert (let ((x64 (x41 x83 x83)) (x42 (x41 x83 x17)) (x13 (x41 x17 x46)) (x58 (x41 x83 x46)) (x109 (x41 x17 x140)) (x81 (x41 x140 x83)) (x130 (x41 x46 x140)) (x108 (x41 x140 x17)) (x63 (x41 x36 x17)) (x7 (x41 x36 x36)) (x40 (x41 x140 x140)) (x144 (x41 x83 x36)) (x115 (x41 x140 x36)) (x9 (x41 x36 x46)) (x45 (x41 x46 x46)) (x38 (x41 x36 x140)) (x29 (x41 x36 x83)) (x123 (x41 x46 x17)) (x82 (x41 x140 x46)) (x59 (x41 x17 x83)) (x62 (x41 x46 x36)) (x72 (x41 x17 x17)) (x67 (x41 x83 x140)) (x6 (x41 x17 x36)) (x129 (x41 x46 x83))) (let ((x19 (= x58 x83)) (x141 (= x83 x42)) (x155 (= x81 x140)) (x134 (= x7 x36)) (x151 (= x62 x46)) (x118 (= x9 x36)) (x121 (= x82 x140)) (x8 (= x67 x83)) (x18 (= x36 x63)) (x35 (= x144 x83)) (x4 (= x45 x46)) (x47 (= x36 x29)) (x3 (= x17 x109)) (x113 (= x17 x72)) (x26 (= x64 x83)) (x106 (= x108 x140)) (x139 (= x17 x6)) (x55 (= x140 x40)) (x78 (= x129 x46)) (x86 (= x46 x123)) (x27 (= x115 x140)) (x48 (= x17 x13)) (x37 (= x38 x36)) (x99 (= x46 x130)) (x158 (= x59 x17))) (and (and (and (and (or (or (or (or (and x118 (= x140 x62)) (or (and x121 (= x140 x130)) (and (= x140 x129) x19))) (and (= x140 x123) x48)) (and (= x45 x140) x4)) (or (or (and x86 (= x140 x13)) (or (or (and x18 (= x6 x140)) (or (and x106 (= x140 x109)) (and x141 (= x140 x59)))) (and x113 (= x140 x72)))) (or (or (or (and x99 x121) (or (or (or (and x155 x8) (and x55 x55)) (and x37 x27)) (and x3 x106))) (or (and x78 (= x58 x140)) (or (and x158 (= x42 x140)) (or (or (and x155 (= x140 x67)) (and x26 (= x64 x140))) (and (= x144 x140) x47))))) (or (or (or (or (and x35 (= x140 x29)) (and x27 (= x140 x38))) (and (= x7 x140) x134)) (and (= x63 x140) x139)) (and x151 (= x9 x140)))))) (or (or (or (or (or (and x18 (= x83 x6)) (or (and (= x83 x109) x106) (and (= x59 x83) x141))) (and x113 (= x83 x72))) (and (= x13 x83) x86)) (or (or (or (or (or (and (= x115 x83) x37) (or (and (= x83 x81) x8) (and x55 (= x83 x40)))) (and (= x83 x108) x3)) (and x99 (= x82 x83))) (or (and x78 x19) (or (or (and x47 x35) (or (and x26 x26) (and x8 x155))) (and x141 x158)))) (or (or (or (or (and x27 (= x83 x38)) (and (= x29 x83) x35)) (and (= x7 x83) x134)) (and x139 (= x63 x83))) (and x151 (= x83 x9))))) (or (and (= x45 x83) x4) (or (and x48 (= x83 x123)) (or (and (= x62 x83) x118) (or (and x19 (= x129 x83)) (and x121 (= x130 x83)))))))) (or (or (or (or (and (= x36 x62) x118) (or (and (= x129 x36) x19) (and x121 (= x130 x36)))) (and (= x36 x123) x48)) (and x4 (= x45 x36))) (or (or (or (or (and (= x58 x36) x78) (or (or (or (and (= x36 x67) x155) (and (= x36 x64) x26)) (and x47 (= x144 x36))) (and (= x42 x36) x158))) (or (or (or (and (= x36 x115) x37) (or (and x55 (= x36 x40)) (and x8 (= x36 x81)))) (and x3 (= x36 x108))) (and (= x82 x36) x99))) (or (or (and x18 x139) (or (and x134 x134) (or (and x35 x47) (and x37 x27)))) (and x151 x118))) (or (or (or (or (and x106 (= x36 x109)) (and (= x36 x59) x141)) (and x18 (= x6 x36))) (and x113 (= x72 x36))) (and x86 (= x36 x13)))))) (or (or (or (or (or (or (or (or (and (= x67 x17) x155) (and x26 (= x17 x64))) (and x47 (= x144 x17))) (and x158 (= x42 x17))) (and (= x17 x58) x78)) (or (and (= x82 x17) x99) (or (and x3 (= x108 x17)) (or (or (and (= x17 x81) x8) (and (= x40 x17) x55)) (and x37 (= x17 x115)))))) (or (and (= x9 x17) x151) (or (and (= x63 x17) x139) (or (or (and (= x17 x29) x35) (and x27 (= x38 x17))) (and x134 (= x7 x17)))))) (or (or (or (and x18 x139) (or (and x158 x141) (and x3 x106))) (and x113 x113)) (and x86 x48))) (or (or (and (= x17 x123) x48) (or (or (and x19 (= x129 x17)) (and x121 (= x17 x130))) (and x118 (= x17 x62)))) (and (= x45 x17) x4)))) (or (or (or (or (or (or (and (= x46 x109) x106) (and x141 (= x59 x46))) (and x18 (= x46 x6))) (and x113 (= x46 x72))) (and x86 (= x46 x13))) (or (or (or (or (or (or (and x8 (= x81 x46)) (and x55 (= x40 x46))) (and (= x115 x46) x37)) (and x3 (= x46 x108))) (and x99 (= x82 x46))) (or (and x78 (= x46 x58)) (or (and x158 (= x42 x46)) (or (or (and (= x64 x46) x26) (and (= x67 x46) x155)) (and (= x144 x46) x47))))) (or (and (= x9 x46) x151) (or (or (or (and (= x46 x38) x27) (and (= x46 x29) x35)) (and (= x46 x7) x134)) (and (= x46 x63) x139))))) (or (and x4 x4) (or (and x86 x48) (or (or (and x78 x19) (and x99 x121)) (and x118 x151)))))))))
(assert (let ((x55 (x41 x46 x83)) (x144 (x41 x140 x83)) (x103 (x41 x46 x36)) (x95 (x41 x36 x46)) (x4 (x41 x36 x36)) (x158 (x41 x83 x17)) (x99 (x41 x36 x140)) (x64 (x41 x83 x83)) (x47 (x41 x83 x36)) (x134 (x41 x140 x17)) (x53 (x41 x17 x17)) (x151 (x41 x140 x46)) (x42 (x41 x36 x83)) (x121 (x41 x140 x36)) (x78 (x41 x83 x46)) (x155 (x41 x83 x140)) (x58 (x41 x17 x83)) (x153 (x41 x46 x17)) (x68 (x41 x36 x17)) (x139 (x41 x17 x140)) (x106 (x41 x140 x140)) (x18 (x41 x46 x140)) (x119 (x41 x17 x46)) (x104 (x41 x17 x36)) (x34 (x41 x46 x46))) (let ((x44 (= x106 x36)) (x2 (= x64 x46)) (x130 (= x18 x83)) (x133 (= x36 x99)) (x31 (= x104 x46)) (x14 (= x139 x46)) (x1 (= x155 x46)) (x100 (= x46 x55)) (x112 (= x36 x78)) (x138 (= x47 x36)) (x11 (= x155 x36)) (x90 (= x140 x34)) (x61 (= x4 x140)) (x3 (= x106 x140)) (x137 (= x53 x36)) (x75 (= x17 x4)) (x38 (= x99 x83)) (x21 (= x121 x46)) (x50 (= x58 x17)) (x88 (= x46 x47)) (x136 (= x151 x46)) (x148 (= x140 x139)) (x70 (= x17 x95)) (x51 (= x139 x36)) (x107 (= x46 x34)) (x116 (= x17 x68)) (x127 (= x53 x46)) (x7 (= x83 x4)) (x110 (= x18 x36)) (x20 (= x18 x46)) (x89 (= x153 x17)) (x101 (= x36 x55)) (x59 (= x58 x83)) (x80 (= x144 x36)) (x65 (= x140 x55)) (x12 (= x68 x140)) (x146 (= x17 x151)) (x123 (= x153 x83)) (x154 (= x17 x55)) (x96 (= x103 x36)) (x92 (= x46 x144)) (x128 (= x46 x4)) (x156 (= x36 x104)) (x97 (= x36 x34)) (x15 (= x58 x46)) (x81 (= x144 x83)) (x56 (= x140 x158)) (x77 (= x119 x46)) (x157 (= x78 x46)) (x76 (= x134 x140)) (x94 (= x36 x4)) (x16 (= x121 x36)) (x113 (= x140 x42)) (x24 (= x158 x17)) (x93 (= x140 x95)) (x19 (= x78 x83)) (x28 (= x140 x104)) (x147 (= x36 x119)) (x125 (= x17 x47)) (x74 (= x36 x64)) (x111 (= x36 x151)) (x118 (= x140 x99)) (x117 (= x134 x17)) (x29 (= x83 x42)) (x35 (= x83 x47)) (x109 (= x139 x83)) (x149 (= x17 x121)) (x69 (= x153 x46)) (x129 (= x83 x55)) (x135 (= x17 x53)) (x131 (= x119 x140)) (x5 (= x46 x103)) (x49 (= x158 x46)) (x108 (= x134 x83)) (x54 (= x140 x78)) (x22 (= x134 x36)) (x86 (= x47 x140)) (x52 (= x17 x103)) (x142 (= x68 x36)) (x114 (= x103 x140)) (x8 (= x155 x83)) (x48 (= x121 x140)) (x9 (= x83 x95)) (x82 (= x151 x83)) (x126 (= x140 x151)) (x40 (= x106 x83)) (x33 (= x95 x36)) (x45 (= x83 x34)) (x26 (= x64 x83)) (x159 (= x42 x46)) (x105 (= x17 x155)) (x60 (= x106 x17)) (x25 (= x17 x78)) (x43 (= x119 x17)) (x150 (= x17 x144)) (x115 (= x83 x121)) (x27 (= x140 x144)) (x84 (= x153 x140)) (x132 (= x46 x134)) (x152 (= x42 x36)) (x67 (= x64 x140)) (x23 (= x46 x106)) (x13 (= x83 x119)) (x32 (= x46 x95)) (x63 (= x83 x68)) (x66 (= x53 x140)) (x62 (= x83 x103)) (x143 (= x17 x104)) (x37 (= x140 x155)) (x71 (= x58 x36)) (x122 (= x46 x68)) (x145 (= x17 x34)) (x102 (= x64 x17)) (x79 (= x17 x99)) (x91 (= x99 x46)) (x141 (= x158 x83)) (x72 (= x83 x53)) (x30 (= x36 x158)) (x6 (= x104 x83)) (x10 (= x140 x18)) (x85 (= x42 x17)) (x57 (= x140 x58)) (x73 (= x36 x153)) (x124 (= x139 x17)) (x87 (= x18 x17))) (and (and (or (or (and x145 x145) (or (or (or (and x87 x146) (and x154 x25)) (and x52 x70)) (and x89 x43))) (or (or (or (or (or (or (and x149 x79) (or (and x105 x150) (and x60 x60))) (and x124 x117)) (and x146 x87)) (or (or (or (or (and x102 x102) (and x150 x105)) (and x125 x85)) (and x50 x24)) (and x154 x25))) (or (or (or (and x75 x75) (or (and x125 x85) (and x149 x79))) (and x116 x143)) (and x52 x70))) (or (and x89 x43) (or (and x135 x135) (or (or (and x117 x124) (and x50 x24)) (and x143 x116)))))) (and (and (or (or (or (or (or (or (and x57 x56) (and x148 x76)) (and x28 x12)) (and x66 x66)) (and x84 x131)) (or (or (or (or (or (and x48 x118) (or (and x3 x3) (and x37 x27))) (and x148 x76)) (and x126 x10)) (or (or (or (or (and x27 x37) (and x67 x67)) (and x113 x86)) (and x56 x57)) (and x65 x54))) (or (or (and x28 x12) (or (or (and x113 x86) (and x48 x118)) (and x61 x61))) (and x93 x114)))) (or (and x90 x90) (or (and x84 x131) (or (or (and x10 x126) (and x65 x54)) (and x93 x114))))) (or (or (and x45 x45) (or (and x123 x13) (or (or (and x19 x129) (and x82 x130)) (and x9 x62)))) (or (or (and x123 x13) (or (and x72 x72) (or (and x6 x63) (or (and x109 x108) (and x141 x59))))) (or (or (or (and x19 x129) (or (or (and x35 x29) (or (and x81 x8) (and x26 x26))) (and x59 x141))) (or (and x82 x130) (or (and x108 x109) (or (or (and x81 x8) (and x40 x40)) (and x38 x115))))) (or (or (or (and x7 x7) (or (and x35 x29) (and x38 x115))) (and x63 x6)) (and x9 x62)))))) (or (or (or (and x73 x147) (or (and x137 x137) (or (or (and x51 x22) (and x30 x71)) (and x156 x142)))) (or (or (or (or (or (or (and x11 x80) (and x74 x74)) (and x138 x152)) (and x30 x71)) (and x101 x112)) (or (and x111 x110) (or (and x22 x51) (or (and x16 x133) (or (and x44 x44) (and x11 x80)))))) (or (and x33 x96) (or (or (or (and x16 x133) (and x152 x138)) (and x94 x94)) (and x142 x156))))) (or (and x97 x97) (or (or (or (and x112 x101) (and x110 x111)) (and x33 x96)) (and x73 x147)))))) (or (or (or (or (or (or (or (or (and x92 x1) (and x23 x23)) (and x91 x21)) (and x132 x14)) (and x20 x136)) (or (and x157 x100) (or (and x15 x49) (or (or (and x92 x1) (and x2 x2)) (and x88 x159))))) (or (and x5 x32) (or (and x122 x31) (or (or (and x88 x159) (and x91 x21)) (and x128 x128))))) (or (or (or (and x122 x31) (or (and x49 x15) (and x14 x132))) (and x127 x127)) (and x69 x77))) (or (and x107 x107) (or (and x69 x77) (or (or (and x100 x157) (and x136 x20)) (and x32 x5)))))))))
(assert (or (or (or (and (not (= x36 (x41 x46 (x41 x36 x46)))) (and (not (= x36 (x41 x17 (x41 x36 x17)))) (and (and (not (= x36 (x41 x140 (x41 x36 x140)))) (not (= x36 (x41 x83 (x41 x36 x83))))) (not (= x36 (x41 x36 (x41 x36 x36))))))) (or (and (and (and (not (= (x41 x36 (x41 x140 x36)) x140)) (and (not (= x140 (x41 x140 (x41 x140 x140)))) (not (= x140 (x41 x83 (x41 x140 x83)))))) (not (= (x41 x17 (x41 x140 x17)) x140))) (not (= (x41 x46 (x41 x140 x46)) x140))) (and (and (and (and (not (= x83 (x41 x140 (x41 x83 x140)))) (not (= x83 (x41 x83 (x41 x83 x83))))) (not (= x83 (x41 x36 (x41 x83 x36))))) (not (= x83 (x41 x17 (x41 x83 x17))))) (not (= x83 (x41 x46 (x41 x83 x46))))))) (and (not (= (x41 x46 (x41 x17 x46)) x17)) (and (not (= x17 (x41 x17 (x41 x17 x17)))) (and (and (not (= (x41 x140 (x41 x17 x140)) x17)) (not (= x17 (x41 x83 (x41 x17 x83))))) (not (= (x41 x36 (x41 x17 x36)) x17)))))) (and (and (and (not (= (x41 x36 (x41 x46 x36)) x46)) (and (not (= x46 (x41 x140 (x41 x46 x140)))) (not (= (x41 x83 (x41 x46 x83)) x46)))) (not (= (x41 x17 (x41 x46 x17)) x46))) (not (= (x41 x46 (x41 x46 x46)) x46)))))
(assert (and (= (x41 x36 x83) x46) (and (= (x41 x36 x36) x17) (and (= (x41 x83 x36) x140) (= (x41 x36 x17) x83)))))
(check-sat)
(exit)
